# Solution for model r10_t9_m2_1
# Finished Task: 9 / 9
# Makespan: 414.0, Total Distance: 651.0, Total Time: 0.0196
# R O S F
0 0 11 0.0 0.0
1 1 15 0.0 0.0
2 2 16 0.0 0.0
3 3 14 0.0 0.0
4 4 17 0.0 0.0
5 5 18 0.0 0.0
6 6 -1 0.0 0.0
7 7 -1 0.0 0.0
8 8 -1 0.0 0.0
9 9 -1 0.0 0.0
10 1 -1 356.0 388.0
11 0 12 188.0 223.0
12 0 -1 377.0 414.0
13 2 -1 379.0 403.0
14 3 -1 346.0 367.0
15 1 10 123.0 162.0
16 2 13 158.0 195.0
17 4 -1 311.0 331.0
18 5 -1 303.0 338.0
